This is Ipopt version 3.12.4, running with linear solver mumps.
NOTE: Other linear solvers might be more efficient (see Ipopt documentation).

Number of nonzeros in equality constraint Jacobian...:        0
Number of nonzeros in inequality constraint Jacobian.:        0
Number of nonzeros in Lagrangian Hessian.............:        0

Total number of variables............................:        3
                     variables with only lower bounds:        0
                variables with lower and upper bounds:        0
                     variables with only upper bounds:        0
Total number of equality constraints.................:        0
Total number of inequality constraints...............:        0
        inequality constraints with only lower bounds:        0
   inequality constraints with lower and upper bounds:        0
        inequality constraints with only upper bounds:        0

iter    objective    inf_pr   inf_du lg(mu)  ||d||  lg(rg) alpha_du alpha_pr  ls
   0  9.9304882e-07 0.00e+00 1.27e-05   0.0 0.00e+00    -  0.00e+00 0.00e+00   0
   1  9.9304585e-07 0.00e+00 1.27e-05 -11.0 1.27e-05    -  1.00e+00 1.00e+00f  1
   2  7.8285529e-07 0.00e+00 8.16e-06 -11.0 4.75e+00    -  1.00e+00 1.00e+00f  1
   3  6.7228754e-07 0.00e+00 6.28e-06 -11.0 1.77e+00    -  1.00e+00 1.00e+00f  1
   4  6.4738172e-07 0.00e+00 1.55e-06 -11.0 6.26e-01    -  1.00e+00 1.00e+00f  1
   5  6.4385744e-07 0.00e+00 1.56e-07 -11.0 2.42e-01    -  1.00e+00 1.00e+00f  1
   6  6.4385744e-07 0.00e+00 1.56e-07 -11.0 2.71e-02    -  1.00e+00 2.91e-11f 36
   7  6.4385744e-07 0.00e+00 1.56e-07 -11.0 2.60e-02    -  1.00e+00 2.91e-11f 36
   8  6.4385744e-07 0.00e+00 1.56e-07 -11.0 2.60e-02    -  1.00e+00 1.16e-10f 34
   9  6.4385744e-07 0.00e+00 1.56e-07 -11.0 2.61e-02    -  1.00e+00 2.91e-11f 36
iter    objective    inf_pr   inf_du lg(mu)  ||d||  lg(rg) alpha_du alpha_pr  ls
  10  6.4385744e-07 0.00e+00 1.56e-07 -11.0 2.61e-02    -  1.00e+00 7.28e-12f 38
  11  6.4385744e-07 0.00e+00 1.56e-07 -11.0 2.60e-02    -  1.00e+00 1.82e-12f 40
  12  6.4385744e-07 0.00e+00 1.56e-07 -11.0 2.63e-02    -  1.00e+00 7.28e-12f 38
  13  6.4385744e-07 0.00e+00 1.56e-07 -11.0 2.56e-02    -  1.00e+00 9.09e-13f 41
  14  6.4385744e-07 0.00e+00 1.56e-07 -11.0 2.59e-02    -  1.00e+00 2.91e-11f 36
  15  6.4385744e-07 0.00e+00 1.56e-07 -11.0 2.62e-02    -  1.00e+00 7.28e-12f 38
  16  6.4394061e-07 0.00e+00 1.16e-08 -11.0 2.62e-02    -  1.00e+00 1.00e+00w  1
  17  6.4394000e-07 0.00e+00 8.43e-09 -11.0 1.65e-03    -  1.00e+00 1.00e+00w  1

Number of Iterations....: 17

                                   (scaled)                 (unscaled)
Objective...............:   6.4394000210557497e-07    6.4394000210557497e-07
Dual infeasibility......:   8.4259616471198388e-09    8.4259616471198388e-09
Constraint violation....:   0.0000000000000000e+00    0.0000000000000000e+00
Complementarity.........:   0.0000000000000000e+00    0.0000000000000000e+00
Overall NLP error.......:   8.4259616471198388e-09    8.4259616471198388e-09


Number of objective function evaluations             = 421
Number of objective gradient evaluations             = 18
Number of equality constraint evaluations            = 0
Number of inequality constraint evaluations          = 0
Number of equality constraint Jacobian evaluations   = 0
Number of inequality constraint Jacobian evaluations = 0
Number of Lagrangian Hessian evaluations             = 0
Total CPU secs in IPOPT (w/o function evaluations)   =      0.020
Total CPU secs in NLP function evaluations           =      0.488

EXIT: Optimal Solution Found.
